p cnf 171
-1 -28
-2 -32
-3 -35
-4 -4
-5 -38
-6 -42
-7 -46
-8 -50
-9 -54
-10 -58
-11 -62
-12 -4
-12 -5
4 5 12
-13 -6
-13 -7
6 7 13
-14 -8
-14 -9
8 9 14
-15 -10
-15 -11
10 11 15
-16 12
-16 13
-12 -13 16
-17 14
-17 15
-14 -15 17
-18 16
-18 17
-16 -17 18
-19 -1
-19 -2
1 2 19
-20 -3
-20 19
3 -19 20
-21 1
-21 -2
-1 2 21
-22 1
-22 2
-1 -2 22
-23 -1
-23 2
1 -2 23
-24 -21
-24 -23
21 23 24
-25 -20
-25 24
20 -24 25
-26 18
-26 -25
-18 25 26
-27 1
-27 -18
-1 18 27
-28 -26
-28 -27
26 27 28
-29 -3
-29 -21
3 21 29
-30 18
-30 -29
-18 29 30
-31 2
-31 -18
-2 18 31
-32 -30
-32 -31
30 31 32
-33 18
-33 22
-18 -22 33
-34 3
-34 -18
-3 18 34
-35 -33
-35 -34
33 34 35
-36 -4
-36 5
4 -5 36
-37 4
-37 -5
-4 5 37
-38 -36
-38 -37
36 37 38
-39 4
-39 5
-4 -5 39
-40 6
-40 -39
-6 39 40
-41 -6
-41 39
6 -39 41
-42 -40
-42 -41
40 41 42
-43 6
-43 39
-6 -39 43
-44 7
-44 -43
-7 43 44
-45 -7
-45 43
7 -43 45
-46 -44
-46 -45
44 45 46
-47 7
-47 43
-7 -43 47
-48 8
-48 -47
-8 47 48
-49 -8
-49 47
8 -47 49
-50 -48
-50 -49
48 49 50
-51 8
-51 47
-8 -47 51
-52 9
-52 -51
-9 51 52
-53 -9
-53 51
9 -51 53
-54 -52
-54 -53
52 53 54
-55 9
-55 51
-9 -51 55
-56 10
-56 -55
-10 55 56
-57 -10
-57 55
10 -55 57
-58 -56
-58 -57
56 57 58
-59 10
-59 55
-10 -55 59
-60 11
-60 -59
-11 59 60
-61 -11
-61 59
11 -59 61
-62 -60
-62 -61
60 61 62
-63 11
-63 59
-11 -59 63
-64 1
-64 3
-1 -3 64
64
